Route #1: 1 24 10 29 8 33 14 21 11 1
Route #2: 1 15 36 32 39 3 26 13 40 43 1
Route #3: 1 2 45 7 25 38 20 12 1
Route #4: 1 27 30 44 19 18 28 1
Route #5: 1 16 23 17 5 37 1
Route #6: 1 35 41 31 6 22 34 42 9 1
cost 1097.9441792574908
